c   #vars: 78   #clauses: 344   #literals: 938
c 
p cnf 78 344
-1 -2 0
-3 -4 0
-5 -6 0
40 41 76 77 0
44 45 76 77 0
-7 -8 0
-9 -10 0
-11 -12 0
-13 -14 0
-15 -16 0
-17 -18 0
-20 -21 0
-22 -23 0
-24 -25 0
11 12 62 63 0
13 14 62 63 0
-26 -27 0
-28 -29 0
-30 -31 0
-32 -33 0
19 -33 58 -62 0
-34 -35 0
-36 -37 0
-38 -39 0
-40 -41 0
-42 -43 0
-44 -45 0
-46 -47 0
24 25 53 54 0
24 25 55 56 0
-21 32 33 58 0
-49 -50 0
-51 -52 0
-53 -54 0
-55 -56 0
9 10 76 77 0
9 10 28 29 0
46 47 72 73 0
-9 36 37 78 0
11 12 -30 57 0
-60 -61 0
-62 -63 0
-64 -65 0
-66 -67 0
-68 -69 0
-70 -71 0
-72 -73 0
-74 -75 0
17 18 48 -68 0
-76 -77 0
13 14 36 37 0
22 23 60 61 0
3 4 53 54 0
-1 -40 0
-2 -41 0
28 29 68 69 0
11 12 38 39 0
-1 -46 0
-2 -47 0
-1 -60 0
-2 -61 0
-17 44 45 57 0
-1 -62 0
-2 -63 0
32 33 72 73 0
-1 -74 0
-2 -75 0
19 49 50 -62 0
-3 -28 0
-4 -29 0
-9 17 18 48 0
-3 -53 0
-4 -54 0
-3 -60 0
-4 -61 0
19 -21 -49 58 0
-3 -70 0
-4 -71 0
15 16 46 47 0
-4 -78 0
30 31 -44 57 0
-5 -34 0
-6 -35 0
13 14 55 56 0
-5 -42 0
-6 -43 0
9 10 34 35 0
-5 -53 0
-6 -54 0
24 25 38 39 0
-5 -66 0
-6 -67 0
19 -58 62 63 0
11 12 -44 57 0
3 4 60 61 0
9 10 -28 59 0
-7 -30 0
-8 -31 0
17 18 38 39 0
-7 -34 0
-8 -35 0
9 10 51 52 0
-3 9 10 78 0
19 -33 -49 58 0
-7 -70 0
-8 -71 0
15 16 55 56 0
-7 -74 0
-8 -75 0
42 43 74 75 0
-9 -28 0
-10 -29 0
40 41 66 67 0
-9 -34 0
-10 -35 0
-19 32 33 58 0
-10 -48 0
32 33 64 65 0
-9 -51 0
-10 -52 0
11 12 -17 57 0
-10 -59 0
19 -21 58 -62 0
-9 -66 0
-10 -67 0
24 25 76 77 0
-9 -76 0
-10 -77 0
-11 30 31 57 0
-10 -78 0
-11 -38 0
-12 -39 0
-11 -44 0
-12 -45 0
-11 -46 0
-12 -47 0
17 18 70 71 0
-12 -57 0
13 14 51 52 0
-11 -62 0
-12 -63 0
-11 44 45 57 0
9 10 -26 59 0
44 45 64 65 0
13 14 30 31 0
-13 -30 0
-14 -31 0
30 31 70 71 0
-13 -36 0
-14 -37 0
-11 17 18 57 0
-13 -38 0
-14 -39 0
22 23 55 56 0
-13 -51 0
-14 -52 0
-13 -55 0
-14 -56 0
22 23 30 31 0
-13 -62 0
-14 -63 0
-15 -32 0
-16 -33 0
1 2 74 75 0
-15 -42 0
-16 -43 0
-15 -46 0
-16 -47 0
9 10 66 67 0
-15 -55 0
-16 -56 0
53 54 72 73 0
-17 -38 0
-18 -39 0
49 50 62 63 0
-17 -42 0
-18 -43 0
7 8 30 31 0
20 21 -33 58 0
-18 -48 0
-18 -57 0
19 -49 62 63 0
-17 -70 0
-18 -71 0
13 14 38 39 0
-9 28 29 59 0
-19 -50 0
-3 36 37 78 0
49 50 70 71 0
-26 28 29 59 0
-19 -63 0
17 18 42 43 0
-20 -42 0
-21 -43 0
19 49 50 -58 0
-20 -53 0
-21 -54 0
-20 -58 0
3 4 -36 78 0
40 41 55 56 0
-20 -72 0
-21 -73 0
7 8 34 35 0
-22 -28 0
-23 -29 0
26 27 34 35 0
-22 -30 0
-23 -31 0
5 6 34 35 0
-22 -36 0
-23 -37 0
24 25 51 52 0
-22 -55 0
-23 -56 0
-22 -60 0
-23 -61 0
-17 30 31 57 0
-24 -38 0
-25 -39 0
34 35 76 77 0
-24 -49 0
-25 -50 0
46 47 64 65 0
-24 -51 0
-25 -52 0
-24 -53 0
-25 -54 0
-24 -55 0
-25 -56 0
36 37 74 75 0
-24 -72 0
-25 -73 0
24 25 72 73 0
-24 -76 0
-25 -77 0
1 2 46 47 0
11 12 46 47 0
-30 44 45 57 0
15 16 32 33 0
-26 -34 0
-27 -35 0
-26 -46 0
-27 -47 0
7 8 74 75 0
17 18 -44 57 0
-27 -59 0
-26 -66 0
-27 -67 0
1 2 60 61 0
17 18 -30 57 0
-29 -59 0
-28 -60 0
-29 -61 0
26 27 66 67 0
-28 -64 0
-29 -65 0
40 41 72 73 0
-28 -68 0
-29 -69 0
7 8 70 71 0
-31 -57 0
1 2 62 63 0
-30 -68 0
-31 -69 0
1 2 40 41 0
-30 -70 0
-31 -71 0
-32 -58 0
3 4 -9 78 0
28 29 60 61 0
-32 -64 0
-33 -65 0
15 16 42 43 0
-32 -72 0
-33 -73 0
20 21 42 43 0
9 10 48 -68 0
26 27 -28 59 0
9 10 -17 48 0
-9 26 27 59 0
24 25 49 50 0
-34 -76 0
-35 -77 0
11 12 44 45 0
-36 -55 0
-37 -56 0
-36 -62 0
-37 -63 0
44 45 68 69 0
-36 -74 0
-37 -75 0
51 52 74 75 0
-37 -78 0
20 21 53 54 0
-40 -55 0
-41 -56 0
26 27 46 47 0
-40 -66 0
-41 -67 0
5 6 53 54 0
-40 -72 0
-41 -73 0
-17 48 68 69 0
-40 -76 0
-41 -77 0
28 29 64 65 0
9 10 -36 78 0
36 37 62 63 0
-42 -60 0
-43 -61 0
-42 -74 0
-43 -75 0
3 4 70 71 0
-45 -57 0
5 6 66 67 0
-44 -64 0
-45 -65 0
-44 -68 0
-45 -69 0
-44 -76 0
-45 -77 0
3 4 28 29 0
-46 -64 0
-47 -65 0
36 37 55 56 0
-46 -72 0
-47 -73 0
20 21 72 73 0
22 23 36 37 0
5 6 42 43 0
-9 48 68 69 0
-19 20 21 58 0
-48 -69 0
22 23 28 29 0
-49 -62 0
-50 -63 0
30 31 68 69 0
-49 -70 0
-50 -71 0
42 43 60 61 0
-51 -74 0
-52 -75 0
-53 -72 0
-54 -73 0
